p cnf 386 460
10 -3 16 21 22 0
10 -3 16 21 -22 0
10 -3 16 -21 23 0
10 -3 16 -21 -23 0
-8 20 -19 24 25 0
-8 20 -19 24 -25 0
-8 20 -19 -24 26 0
-8 20 -19 -24 -26 0
2 -6 -20 27 28 0
2 -6 -20 27 -28 0
2 -6 -20 -27 29 0
2 -6 -20 -27 -29 0
-7 9 3 30 31 0
-7 9 3 30 -31 0
-7 9 3 -30 32 0
-7 9 3 -30 -32 0
3 15 -14 33 34 0
3 15 -14 33 -34 0
3 15 -14 -33 35 0
3 15 -14 -33 -35 0
4 15 20 36 37 0
4 15 20 36 -37 0
4 15 20 -36 38 0
4 15 20 -36 -38 0
11 -9 -6 39 40 0
11 -9 -6 39 -40 0
11 -9 -6 -39 41 0
11 -9 -6 -39 -41 0
3 -17 19 42 43 0
3 -17 19 42 -43 0
3 -17 19 -42 44 0
3 -17 19 -42 -44 0
11 5 -12 45 46 0
11 5 -12 45 -46 0
11 5 -12 -45 47 0
11 5 -12 -45 -47 0
10 3 -15 48 49 0
10 3 -15 48 -49 0
10 3 -15 -48 50 0
10 3 -15 -48 -50 0
2 15 18 51 52 0
2 15 18 51 -52 0
2 15 18 -51 53 0
2 15 18 -51 -53 0
-15 12 11 54 55 0
-15 12 11 54 -55 0
-15 12 11 -54 56 0
-15 12 11 -54 -56 0
18 -19 -8 57 58 0
18 -19 -8 57 -58 0
18 -19 -8 -57 59 0
18 -19 -8 -57 -59 0
13 20 9 60 61 0
13 20 9 60 -61 0
13 20 9 -60 62 0
13 20 9 -60 -62 0
11 -10 -14 63 64 0
11 -10 -14 63 -64 0
11 -10 -14 -63 65 0
11 -10 -14 -63 -65 0
4 18 -9 66 67 0
4 18 -9 66 -67 0
4 18 -9 -66 68 0
4 18 -9 -66 -68 0
-7 -17 5 69 70 0
-7 -17 5 69 -70 0
-7 -17 5 -69 71 0
-7 -17 5 -69 -71 0
-7 11 -15 72 73 0
-7 11 -15 72 -73 0
-7 11 -15 -72 74 0
-7 11 -15 -72 -74 0
6 2 20 75 76 0
6 2 20 75 -76 0
6 2 20 -75 77 0
6 2 20 -75 -77 0
16 -18 -17 78 79 0
16 -18 -17 78 -79 0
16 -18 -17 -78 80 0
16 -18 -17 -78 -80 0
4 -13 -20 81 82 0
4 -13 -20 81 -82 0
4 -13 -20 -81 83 0
4 -13 -20 -81 -83 0
11 17 -8 84 85 0
11 17 -8 84 -85 0
11 17 -8 -84 86 0
11 17 -8 -84 -86 0
13 -11 -9 87 88 0
13 -11 -9 87 -88 0
13 -11 -9 -87 89 0
13 -11 -9 -87 -89 0
-11 13 19 90 91 0
-11 13 19 90 -91 0
-11 13 19 -90 92 0
-11 13 19 -90 -92 0
12 -19 14 93 94 0
12 -19 14 93 -94 0
12 -19 14 -93 95 0
12 -19 14 -93 -95 0
10 -1 -20 96 97 0
10 -1 -20 96 -97 0
10 -1 -20 -96 98 0
10 -1 -20 -96 -98 0
19 -20 13 99 100 0
19 -20 13 99 -100 0
19 -20 13 -99 101 0
19 -20 13 -99 -101 0
13 2 11 102 103 0
13 2 11 102 -103 0
13 2 11 -102 104 0
13 2 11 -102 -104 0
17 19 -18 105 106 0
17 19 -18 105 -106 0
17 19 -18 -105 107 0
17 19 -18 -105 -107 0
19 -20 -10 108 109 0
19 -20 -10 108 -109 0
19 -20 -10 -108 110 0
19 -20 -10 -108 -110 0
-18 16 15 111 112 0
-18 16 15 111 -112 0
-18 16 15 -111 113 0
-18 16 15 -111 -113 0
-18 7 -20 114 115 0
-18 7 -20 114 -115 0
-18 7 -20 -114 116 0
-18 7 -20 -114 -116 0
1 -14 -17 117 118 0
1 -14 -17 117 -118 0
1 -14 -17 -117 119 0
1 -14 -17 -117 -119 0
1 -11 -18 120 121 0
1 -11 -18 120 -121 0
1 -11 -18 -120 122 0
1 -11 -18 -120 -122 0
-18 8 13 123 124 0
-18 8 13 123 -124 0
-18 8 13 -123 125 0
-18 8 13 -123 -125 0
-8 4 16 126 127 0
-8 4 16 126 -127 0
-8 4 16 -126 128 0
-8 4 16 -126 -128 0
-10 1 13 129 130 0
-10 1 13 129 -130 0
-10 1 13 -129 131 0
-10 1 13 -129 -131 0
9 3 -20 132 133 0
9 3 -20 132 -133 0
9 3 -20 -132 134 0
9 3 -20 -132 -134 0
-13 4 8 135 136 0
-13 4 8 135 -136 0
-13 4 8 -135 137 0
-13 4 8 -135 -137 0
17 -11 18 138 139 0
17 -11 18 138 -139 0
17 -11 18 -138 140 0
17 -11 18 -138 -140 0
18 20 2 141 142 0
18 20 2 141 -142 0
18 20 2 -141 143 0
18 20 2 -141 -143 0
-20 -1 4 144 145 0
-20 -1 4 144 -145 0
-20 -1 4 -144 146 0
-20 -1 4 -144 -146 0
-19 2 -9 147 148 0
-19 2 -9 147 -148 0
-19 2 -9 -147 149 0
-19 2 -9 -147 -149 0
-9 -16 -15 150 151 0
-9 -16 -15 150 -151 0
-9 -16 -15 -150 152 0
-9 -16 -15 -150 -152 0
-2 12 9 153 154 0
-2 12 9 153 -154 0
-2 12 9 -153 155 0
-2 12 9 -153 -155 0
5 19 6 156 157 0
5 19 6 156 -157 0
5 19 6 -156 158 0
5 19 6 -156 -158 0
-8 -5 -13 159 160 0
-8 -5 -13 159 -160 0
-8 -5 -13 -159 161 0
-8 -5 -13 -159 -161 0
-18 20 -6 162 163 0
-18 20 -6 162 -163 0
-18 20 -6 -162 164 0
-18 20 -6 -162 -164 0
5 -18 12 165 166 0
5 -18 12 165 -166 0
5 -18 12 -165 167 0
5 -18 12 -165 -167 0
2 5 19 168 169 0
2 5 19 168 -169 0
2 5 19 -168 170 0
2 5 19 -168 -170 0
-5 -8 -11 171 172 0
-5 -8 -11 171 -172 0
-5 -8 -11 -171 173 0
-5 -8 -11 -171 -173 0
-20 -17 11 174 175 0
-20 -17 11 174 -175 0
-20 -17 11 -174 176 0
-20 -17 11 -174 -176 0
-18 -14 -16 177 178 0
-18 -14 -16 177 -178 0
-18 -14 -16 -177 179 0
-18 -14 -16 -177 -179 0
-3 -18 -7 180 181 0
-3 -18 -7 180 -181 0
-3 -18 -7 -180 182 0
-3 -18 -7 -180 -182 0
-11 20 17 183 184 0
-11 20 17 183 -184 0
-11 20 17 -183 185 0
-11 20 17 -183 -185 0
-1 -15 -13 186 187 0
-1 -15 -13 186 -187 0
-1 -15 -13 -186 188 0
-1 -15 -13 -186 -188 0
9 -5 11 189 190 0
9 -5 11 189 -190 0
9 -5 11 -189 191 0
9 -5 11 -189 -191 0
-17 -7 -1 192 193 0
-17 -7 -1 192 -193 0
-17 -7 -1 -192 194 0
-17 -7 -1 -192 -194 0
-6 -1 -16 195 196 0
-6 -1 -16 195 -196 0
-6 -1 -16 -195 197 0
-6 -1 -16 -195 -197 0
-3 -15 -19 198 199 0
-3 -15 -19 198 -199 0
-3 -15 -19 -198 200 0
-3 -15 -19 -198 -200 0
17 14 11 201 202 0
17 14 11 201 -202 0
17 14 11 -201 203 0
17 14 11 -201 -203 0
-17 12 13 204 205 0
-17 12 13 204 -205 0
-17 12 13 -204 206 0
-17 12 13 -204 -206 0
16 12 -2 207 208 0
16 12 -2 207 -208 0
16 12 -2 -207 209 0
16 12 -2 -207 -209 0
14 10 -16 210 211 0
14 10 -16 210 -211 0
14 10 -16 -210 212 0
14 10 -16 -210 -212 0
8 -4 5 213 214 0
8 -4 5 213 -214 0
8 -4 5 -213 215 0
8 -4 5 -213 -215 0
-5 16 17 216 217 0
-5 16 17 216 -217 0
-5 16 17 -216 218 0
-5 16 17 -216 -218 0
-18 -1 -15 219 220 0
-18 -1 -15 219 -220 0
-18 -1 -15 -219 221 0
-18 -1 -15 -219 -221 0
11 -15 -13 222 223 0
11 -15 -13 222 -223 0
11 -15 -13 -222 224 0
11 -15 -13 -222 -224 0
16 -9 -7 225 226 0
16 -9 -7 225 -226 0
16 -9 -7 -225 227 0
16 -9 -7 -225 -227 0
-8 -15 2 228 229 0
-8 -15 2 228 -229 0
-8 -15 2 -228 230 0
-8 -15 2 -228 -230 0
-19 -10 1 231 232 0
-19 -10 1 231 -232 0
-19 -10 1 -231 233 0
-19 -10 1 -231 -233 0
12 -15 -20 234 235 0
12 -15 -20 234 -235 0
12 -15 -20 -234 236 0
12 -15 -20 -234 -236 0
13 -10 9 237 238 0
13 -10 9 237 -238 0
13 -10 9 -237 239 0
13 -10 9 -237 -239 0
17 7 18 240 241 0
17 7 18 240 -241 0
17 7 18 -240 242 0
17 7 18 -240 -242 0
20 15 -2 243 244 0
20 15 -2 243 -244 0
20 15 -2 -243 245 0
20 15 -2 -243 -245 0
-6 -7 -1 246 247 0
-6 -7 -1 246 -247 0
-6 -7 -1 -246 248 0
-6 -7 -1 -246 -248 0
14 11 15 249 250 0
14 11 15 249 -250 0
14 11 15 -249 251 0
14 11 15 -249 -251 0
18 13 -9 252 253 0
18 13 -9 252 -253 0
18 13 -9 -252 254 0
18 13 -9 -252 -254 0
-4 -12 -2 255 256 0
-4 -12 -2 255 -256 0
-4 -12 -2 -255 257 0
-4 -12 -2 -255 -257 0
-13 -5 -9 258 259 0
-13 -5 -9 258 -259 0
-13 -5 -9 -258 260 0
-13 -5 -9 -258 -260 0
5 13 16 261 262 0
5 13 16 261 -262 0
5 13 16 -261 263 0
5 13 16 -261 -263 0
20 -14 -15 264 265 0
20 -14 -15 264 -265 0
20 -14 -15 -264 266 0
20 -14 -15 -264 -266 0
19 -20 18 267 268 0
19 -20 18 267 -268 0
19 -20 18 -267 269 0
19 -20 18 -267 -269 0
19 -17 13 270 271 0
19 -17 13 270 -271 0
19 -17 13 -270 272 0
19 -17 13 -270 -272 0
3 19 14 273 274 0
3 19 14 273 -274 0
3 19 14 -273 275 0
3 19 14 -273 -275 0
6 3 20 276 277 0
6 3 20 276 -277 0
6 3 20 -276 278 0
6 3 20 -276 -278 0
-8 -20 -2 279 280 0
-8 -20 -2 279 -280 0
-8 -20 -2 -279 281 0
-8 -20 -2 -279 -281 0
12 -10 -19 282 283 0
12 -10 -19 282 -283 0
12 -10 -19 -282 284 0
12 -10 -19 -282 -284 0
-2 -5 -8 285 286 0
-2 -5 -8 285 -286 0
-2 -5 -8 -285 287 0
-2 -5 -8 -285 -287 0
13 -4 -11 288 289 0
13 -4 -11 288 -289 0
13 -4 -11 -288 290 0
13 -4 -11 -288 -290 0
-5 -10 19 291 292 0
-5 -10 19 291 -292 0
-5 -10 19 -291 293 0
-5 -10 19 -291 -293 0
294 295 297 301 309 0
294 295 297 301 -309 0
294 295 297 -301 310 0
294 295 297 -301 -310 0
294 295 -297 302 311 0
294 295 -297 302 -311 0
294 295 -297 -302 312 0
294 295 -297 -302 -312 0
294 -295 298 303 313 0
294 -295 298 303 -313 0
294 -295 298 -303 314 0
294 -295 298 -303 -314 0
294 -295 -298 304 315 0
294 -295 -298 304 -315 0
294 -295 -298 -304 316 0
294 -295 -298 -304 -316 0
-294 296 299 305 317 0
-294 296 299 305 -317 0
-294 296 299 -305 318 0
-294 296 299 -305 -318 0
-294 296 -299 306 319 0
-294 296 -299 306 -319 0
-294 296 -299 -306 320 0
-294 296 -299 -306 -320 0
-294 -296 300 307 321 0
-294 -296 300 307 -321 0
-294 -296 300 -307 322 0
-294 -296 300 -307 -322 0
-294 -296 -300 308 323 0
-294 -296 -300 308 -323 0
-294 -296 -300 -308 324 0
-294 -296 -300 -308 -324 0
325 326 328 332 340 0
325 326 328 332 -340 0
325 326 328 -332 341 0
325 326 328 -332 -341 0
325 326 -328 333 342 0
325 326 -328 333 -342 0
325 326 -328 -333 343 0
325 326 -328 -333 -343 0
325 -326 329 334 344 0
325 -326 329 334 -344 0
325 -326 329 -334 345 0
325 -326 329 -334 -345 0
325 -326 -329 335 346 0
325 -326 -329 335 -346 0
325 -326 -329 -335 347 0
325 -326 -329 -335 -347 0
-325 327 330 336 348 0
-325 327 330 336 -348 0
-325 327 330 -336 349 0
-325 327 330 -336 -349 0
-325 327 -330 337 350 0
-325 327 -330 337 -350 0
-325 327 -330 -337 351 0
-325 327 -330 -337 -351 0
-325 -327 331 338 352 0
-325 -327 331 338 -352 0
-325 -327 331 -338 353 0
-325 -327 331 -338 -353 0
-325 -327 -331 339 354 0
-325 -327 -331 339 -354 0
-325 -327 -331 -339 355 0
-325 -327 -331 -339 -355 0
356 357 359 363 371 0
356 357 359 363 -371 0
356 357 359 -363 372 0
356 357 359 -363 -372 0
356 357 -359 364 373 0
356 357 -359 364 -373 0
356 357 -359 -364 374 0
356 357 -359 -364 -374 0
356 -357 360 365 375 0
356 -357 360 365 -375 0
356 -357 360 -365 376 0
356 -357 360 -365 -376 0
356 -357 -360 366 377 0
356 -357 -360 366 -377 0
356 -357 -360 -366 378 0
356 -357 -360 -366 -378 0
-356 358 361 367 379 0
-356 358 361 367 -379 0
-356 358 361 -367 380 0
-356 358 361 -367 -380 0
-356 358 -361 368 381 0
-356 358 -361 368 -381 0
-356 358 -361 -368 382 0
-356 358 -361 -368 -382 0
-356 -358 362 369 383 0
-356 -358 362 369 -383 0
-356 -358 362 -369 384 0
-356 -358 362 -369 -384 0
-356 -358 -362 370 385 0
-356 -358 -362 370 -385 0
-356 -358 -362 -370 386 0
-356 -358 -362 -370 -386 0

